29705
6,8,16,72,248,357,506,530,721,757,1130,1480,1485,1524,1583,1673,1841,1846,1860,1935,1993,1999,2161,2250,2259,2352,2368,2421,2501,2720,2780,2872,3103,3145,3396,3417,3470,3479,3487,3533,3812,3927,4166,4397,4410,4529,4649,4921,4922
